DIMENSION: 8
EDGE_WEIGHT_TYPE: EXPLICIT
EDGE_WEIGHT_FORMAT: FULL_MATRIX
EDGE_WEIGHT_SECTION:
32767 98 26 18 53 32767 37 47 
98 32767 60 16 97 10 32767 32767 
26 60 32767 24 79 68 99 16 
18 16 24 32767 92 32767 29 20 
53 97 79 92 32767 87 90 84 
32767 10 68 32767 87 32767 4 32767 
37 32767 99 29 90 4 32767 75 
47 32767 16 20 84 32767 75 32767 
EOF